NAME : traveling-santa-2018-prime-paths.30205.tour
COMMENT : Length = 30205
COMMENT : Found by LKH [Keld Helsgaun] Sun Jun 12 20:00:09 2022
TYPE : TOUR
DIMENSION : 100
TOUR_SECTION
1
20
79
23
10
26
64
83
72
52
9
97
19
14
80
93
82
39
53
66
56
67
100
27
68
86
25
60
5
32
87
16
44
85
29
71
50
49
13
99
4
8
33
41
51
45
42
22
96
88
90
94
89
12
37
92
18
74
77
43
40
7
57
69
3
46
6
78
38
73
54
48
62
47
65
58
61
84
59
24
91
15
95
75
31
35
34
17
81
70
11
28
2
63
36
98
21
76
30
55
-1
EOF
